DIMENSION: 8
EDGE_WEIGHT_TYPE: EXPLICIT
EDGE_WEIGHT_FORMAT: FULL_MATRIX
EDGE_WEIGHT_SECTION:
32767 93 59 96 65 51 25 18 
93 32767 75 35 97 100 69 25 
59 75 32767 95 28 20 15 45 
96 35 95 32767 60 18 49 5 
65 97 28 60 32767 85 94 36 
51 100 20 18 85 32767 36 19 
25 69 15 49 94 36 32767 52 
18 25 45 5 36 19 52 32767 
EOF